# Objective value = 95600
x66 0
x67 0
x68 1
x69 0
x70 1
x71 1
x72 1
x73 0
x74 0
x75 0
x76 0
x77 1
x78 1
x79 1
x80 0
x81 0
x82 1
x83 1
x84 1
x85 0
x86 1
x87 1
x88 0
x89 0
x90 0
x91 1
x92 0
x93 0
x94 0
x95 1
x96 1
x97 1
x98 0
x99 1
x100 1
x101 0
x102 1
x103 0
x104 0
x105 0
x106 1
x107 0
x108 0
x109 1
x110 0
x111 0
x112 1
x113 1
x114 1
x115 0
x116 1
x117 1
x118 0
x119 1
x120 0
x121 0
x122 1
x123 1
x124 1
x125 0
x126 1
x127 1
x128 0
x129 1
x130 0
x131 1
x132 0
x133 1
x134 1
x135 1
x136 0
x137 1
x138 1
x139 0
x140 1
x141 0
x142 1
x143 1
x144 0
x145 1
x146 1
x147 1
x148 0
x149 1
x150 1
x151 0
x152 1
x153 0
x154 1
x155 1
x156 1
x157 1
x158 0
x159 0
x160 0
x161 1
x162 0
x163 0
x164 1
x165 0
x166 1
x167 0
x168 0
x169 0
x170 0
x171 0
x172 1
x173 1
x174 1
x175 0
x176 1
x177 1
x178 0
x179 1
x180 0
x181 1
x182 1
x183 1
x184 1
x185 0
x186 0
x187 1
x188 1
x189 1
x190 0
x191 1
x192 1
x193 0
x194 1
x195 0
x196 1
x197 1
x198 1
x199 1
x200 0
x201 1
x202 1
x203 0
x204 0
x205 0
x206 1
x207 1
x208 0
x209 0
x210 1
x211 1
x212 1
x213 0
x214 1
x215 0
x216 0
x217 0
x218 1
x219 1
x220 1
x221 0
x222 1
x223 1
x224 0
x225 1
x226 0
x227 1
x228 1
x229 1
x230 0
x231 1
x232 1
x233 0
x234 1
x235 1
x236 0
x237 1
x238 1
x239 0
x240 1
x241 0
x242 1
x243 0
x244 1
x245 1
x246 1
x247 1
x248 0
x249 0
x250 1
x251 0
x252 0
x253 1
x254 1
x255 0
x256 0
x257 0
x258 0
x259 0
x260 1
x261 1
x262 0
x263 1
x264 1
x265 1
x266 0
x267 1
x268 1
x269 1
x270 1
x271 0
x272 0
x273 1
x274 1
x275 0
x276 1
x277 1
x278 1
x279 0
x280 1
x281 1
x282 1
x283 1
x284 0
x285 1
x286 0
x287 1
x288 1
x289 0
x290 1
x291 1
x292 1
x293 0
x294 1
x295 1
x296 1
x297 1
x298 0
x299 1
x300 1
x301 0
x302 1
x303 1
x304 0
x305 1
x306 1
x307 1
x308 0
x309 1
x310 1
x311 1
x312 1
x313 0
x314 1
x315 1
x316 1
x317 1
x318 0
x319 1
x320 1
x321 0
x322 0
x323 0
x324 1
x325 0
x326 0
x327 0
x328 0
x329 1
x330 0
x331 0
x332 0
x333 0
x334 0
x335 0
x336 1
x337 0
x338 1
x339 1
x340 1
x341 0
x342 1
x343 1
x344 1
x345 1
x346 0
x347 1
x348 1
x349 1
x350 1
x351 0
x352 0
x353 1
x354 1
x355 1
x356 0
x357 1
x358 1
x359 0
x360 1
x361 1
x362 1
x363 1
x364 0
x365 1
x366 1
x367 1
x368 1
x369 0
x370 1
x371 0
x372 1
x373 1
x374 1
x375 0
x376 1
x377 1
x378 0
x379 1
x380 1
x381 1
x382 1
x383 0
x384 1
x385 1
x386 1
x387 1
x388 0
x389 1
x390 1
x391 0
x392 1
x393 0
x394 1
x395 0
x396 1
x397 1
x398 0
x399 1
x400 1
x401 1
x402 1
x403 0
x404 1
x405 1
x406 1
x407 1
x408 0
x409 1
x410 1
x411 1
x412 1
x413 1
x414 0
x415 0
x416 1
x417 0
x418 0
x419 1
x420 0
x421 0
x422 0
x423 0
x424 1
x425 0
x426 0
x427 0
x428 0
x429 1
x430 0
x431 0
x432 0
x433 0
x434 0
x435 1
x436 1
x437 1
x438 0
x439 1
x440 0
x441 1
x442 1
x443 1
x444 1
x445 1
x446 0
x447 0
x448 0
x449 1
x450 0
x451 1
x452 0
x453 0
x454 0
x455 1
x456 0
x457 0
x458 1
x459 1
x460 1
x461 0
x462 0
x463 0
x464 1
x465 1
x466 1
x467 1
x468 1
x469 0
x470 0
x471 1
x472 1
x473 1
x474 0
x475 1
x476 0
x477 1
x478 1
x479 1
x480 1
x481 1
x482 0
x483 1
x484 1
x485 0
x486 0
x487 0
x488 1
x489 0
x490 1
x491 0
x492 1
x493 0
x494 0
x495 0
x496 1
x497 0
x498 0
x499 0
x500 1
x501 1
x502 1
x503 0
x504 1
x505 1
x506 1
x507 0
x508 1
x509 1
x510 1
x511 0
x512 1
x513 1
x514 0
x515 0
x516 1
x517 1
x518 1
x519 0
x520 1
x521 1
x522 1
x523 0
x524 1
x525 1
x526 1
x527 0
x528 1
x529 1
x530 0
x531 1
x532 0
x533 0
x534 1
x535 1
x536 0
x537 1
x538 1
x539 1
x540 0
x541 1
x542 1
x543 1
x544 0
x545 1
x546 1
x547 0
x548 1
x549 1
x550 0
x551 0
x552 1
x553 1
x554 1
x555 1
x556 1
x557 1
x558 0
x559 1
x560 1
x561 1
x562 0
x563 1
x564 1
x565 0
x566 1
x567 1
x568 1
x569 0
x570 0
x571 1
x572 1
x573 1
x574 0
x575 1
x576 1
x577 0
x578 1
x579 1
x580 1
x581 0
x582 1
x583 1
x584 0
x585 1
x586 1
x587 1
x588 1
x589 0
x590 0
x591 1
x592 1
x593 1
x594 1
x595 1
x596 1
x597 0
x598 1
x599 1
x600 1
x601 0
x602 1
x603 1
x604 0
x605 1
x606 1
x607 1
x608 1
x609 1
x610 1
x611 1
x612 0
x613 0
x614 0
x615 0
x616 0
x617 0
x618 1
x619 0
x620 1
x621 0
x622 1
x623 0
x624 0
x625 1
x626 0
x627 0
x628 0
x629 0
x630 0
x631 0
x632 0
x633 0
x634 1
x635 0
x636 1
x637 1
x638 1
x639 1
x640 1
x641 1
x642 0
x643 1
x644 0
x645 1
x646 1
x647 0
x648 1
x649 1
x650 1
x651 1
x652 1
x653 1
x654 0
x655 0
x656 1
x657 1
x658 0
x659 1
x660 1
x661 1
x662 1
x663 1
x664 1
x665 0
x666 1
x667 0
x668 1
x669 1
x670 0
x671 1
x672 1
x673 1
x674 1
x675 1
x676 1
x677 0
x678 1
x679 1
x680 0
x681 0
x682 1
x683 0
x684 0
x685 1
x686 0
x687 0
x688 0
x689 1
x690 0
x691 1
x692 0
x693 0
x694 1
x695 0
x696 0
x697 0
x698 0
x699 0
x700 0
x701 1
x702 0
x703 0
x704 0
x705 1
x706 1
x707 0
x708 1
x709 1
x710 1
x711 1
x712 1
x713 1
x714 0
x715 1
x716 0
x717 1
x718 1
x719 0
x720 1
x721 1
x722 1
x723 1
x724 1
x725 1
x726 0
x727 1
x728 1
x729 0
x730 0
x731 1
x732 1
x733 1
x734 0
x735 1
x736 0
x737 1
x738 1
x739 1
x740 1
x741 1
x742 0
x743 1
x744 1
x745 1
x746 1
x747 0
x748 1
x749 1
x750 1
x751 0
x752 1
x753 0
x754 1
x755 1
x756 1
x757 0
x758 1
x759 0
x760 1
x761 1
x762 1
x763 1
x764 1
x765 1
x766 0
x767 0
x768 0
x769 1
x770 1
x771 1
x772 0
x773 0
x774 0
x775 0
x776 0
x777 1
x778 0
x779 0
x780 0
x781 1
x782 0
x783 0
x784 0
x785 1
x786 1
x787 1
x788 0
x789 1
x790 0
x791 1
x792 1
x793 1
x794 1
x795 1
x796 0
x797 1
x798 1
x799 0
x800 1
x801 1
x802 1
x803 0
x804 0
x805 1
x806 1
x807 1
x808 0
x809 1
x810 0
x811 1
x812 0
x813 1
x814 1
x815 0
x816 1
x817 1
x818 1
x819 1
x820 1
x821 1
x822 1
x823 0
x824 1
x825 0
x826 1
x827 1
x828 1
x829 0
x830 1
x831 1
x832 1
x833 0
x834 1
x835 1
x836 0
x837 1
x838 1
x839 1
x840 1
x841 1
x842 1
x843 1
x844 0
x845 1
x846 1
x847 0
x848 1
x849 1
x850 1
x851 0
x852 1
x853 1
x854 1
x855 0
x856 1
x857 1
x858 0
x859 1
x860 1
x861 1
x862 1
x863 0
x864 1
x865 1
x866 0
x867 1
x868 1
x869 1
x870 1
x871 1
x872 0
x873 0
x874 1
x875 0
x876 0
x877 0
x878 1
x879 0
x880 0
x881 1
x882 0
x883 0
x884 0
x885 1
x886 0
x887 0
x888 0
x889 1
x890 0
x891 0
x892 0
x893 0
x894 0
x895 0
x896 1
x897 1
x898 1
x899 1
x900 1
x901 1
x902 0
x903 1
x904 1
x905 1
x906 0
x907 1
x908 1
x909 1
x910 0
x911 1
x912 1
x913 0
x914 1
x915 1
x916 1
x917 1
x918 0
x919 1
x920 1
x921 0
x922 0
x923 0
x924 1
x925 0
x926 0
x927 1
x928 0
x929 0
x930 1
x931 0
x932 0
x933 0
x934 0
x935 1
x936 0
x937 0
x938 1
x939 0
x940 0
x941 0
x942 0
x943 1
x944 0
x945 0
x946 0
x947 1
x948 1
x949 1
x950 1
x951 1
x952 1
x953 0
x954 1
x955 1
x956 1
x957 1
x958 1
x959 1
x960 1
x961 0
x962 1
x963 1
x964 0
x965 1
x966 1
x967 1
x968 1
x969 0
x970 1
x971 0
x972 0
x973 0
x974 1
x975 1
x976 1
x977 1
x978 1
x979 1
x980 0
x981 1
x982 0
x983 1
x984 1
x985 1
x986 1
x987 1
x988 0
x989 1
x990 1
x991 0
x992 1
x993 1
x994 1
x995 1
x996 0
x997 1
x998 0
x999 1
x1000 1
x1001 1
x1002 0
x1003 1
x1004 0
x1005 0
x1006 0
x1007 0
x1008 0
x1009 0
x1010 1
x1011 0
x1012 1
x1013 0
x1014 0
x1015 1
x1016 0
x1017 0
x1018 0
x1019 1
x1020 0
x1021 0
x1022 0
x1023 0
x1024 1
x1025 0
x1026 1
x1027 0
x1028 0
x1029 0
x1030 1
x1031 1
x1032 0
x1033 1
x1034 1
x1035 1
x1036 1
x1037 1
x1038 1
x1039 0
x1040 0
x1041 1
x1042 1
x1043 1
x1044 0
x1045 1
x1046 1
x1047 1
x1048 0
x1049 1
x1050 1
x1051 1
x1052 1
x1053 0
x1054 1
x1055 0
x1056 1
x1057 1
x1058 0
x1059 0
x1060 1
x1061 1
x1062 0
x1063 1
x1064 1
x1065 0
x1066 1
x1067 1
x1068 1
x1069 0
x1070 1
x1071 1
x1072 1
x1073 1
x1074 0
x1075 1
x1076 1
x1077 1
x1078 0
x1079 1
x1080 1
x1081 1
x1082 1
x1083 0
x1084 1
x1085 0
x1086 1
x1087 1
x1088 0
x1089 1
x1090 0
x1091 1
x1092 1
x1093 0
x1094 1
x1095 1
x1096 1
x1097 1
x1098 1
x1099 1
x1100 0
x1101 1
x1102 1
x1103 1
x1104 1
x1105 0
x1106 1
x1107 1
x1108 1
x1109 0
x1110 1
x1111 1
x1112 1
x1113 1
x1114 0
x1115 1
x1116 0
x1117 1
x1118 1
x1119 0
x1120 1
x1121 1
x1 1
x2 0
x3 0
x4 0
x5 1
x6 0
x7 0
x8 1
x9 0
x10 1
x11 0
x12 0
x13 0
x14 0
x15 1
x16 0
x17 0
x18 1
x19 0
x20 0
x21 0
x22 0
x23 1
x24 0
x25 0
x26 0
x27 0
x28 1
x29 0
x30 0
x31 0
x32 0
x33 1
x34 0
x35 1
x36 0
x37 0
x38 1
x39 0
x40 0
x41 0
x42 0
x43 0
x44 0
x45 1
x46 0
x47 0
x48 1
x49 0
x50 0
x51 0
x52 1
x53 0
x54 0
x55 0
x56 0
x57 1
x58 0
x59 1
x60 0
x61 0
x62 1
x63 0
x64 0
x65 0
